============================[ Problem Statistics ]=============================|                                                                             ||  Number of variables:          4242                                         ||  Number of clauses:           10468                                         ||  Parse time:                   0.85 s                                       ||                                                                             |============================[ Search Statistics ]==============================| Conflicts |          ORIGINAL         |          LEARNT          | Progress ||           |    Vars  Clauses Literals |    Limit  Clauses Lit/Cl |          |===============================================================================|       100 |    1591     6673  1364144 |     2446      100     53 | 62.501 % ||       250 |    1591     6673  1364144 |     2691      250     75 | 62.495 % |===============================================================================restarts              : 4conflicts             : 460            (360 /sec)decisions             : 820            (0.00 % random) (642 /sec)propagations          : 13766          (10772 /sec)conflict literals     : 39100          (94.45 % deleted)CPU time              : 1.278 sSATISFIABLE